9
2147483647 21 37 64 4 7 22 66 33 
21 2147483647 20 31 59 87 99 42 4 
37 20 2147483647 35 25 45 31 85 63 
64 31 35 2147483647 23 53 16 49 90 
4 59 25 23 2147483647 86 36 11 46 
7 87 45 53 86 2147483647 92 50 40 
22 99 31 16 36 92 2147483647 26 3 
66 42 85 49 11 50 26 2147483647 69 
33 4 63 90 46 40 3 69 2147483647 
